








































































































53 36 70 40 2 18 54 16 
32 10 33 24 27 11 8 39 
51 74 37 23 42 59 35 22 
17 21 15 25 75 29 69 
57 6 60 76 31 13 4 44 72 
67 28 64 58 30 46 41 34 26 
5 19 0 20 38 12 48 
56 45 61 43 63 14 49 71 
65 1 50 7 47 68 73 
52 3 9 55 62 66 
